SPARKNaCl/why3-cvc5/sparknacl-hashing-rfsb509.adb_132_15_range_check3_1.smt2
;; produced by cvc5.drv ;;
(set-logic ALL)
(set-info :smt-lib-version 2.6)
;;; generated by SMT-LIB2 driver
;;; SMT-LIB2 driver: bit-vectors, common part
;;; SMT-LIB2: integer arithmetic
;; "lsr"
(declare-fun lsr ((_ BitVec 8)
  Int) (_ BitVec 8))

;; "pow2"
(declare-fun pow2 (Int) Int)

(declare-const two_power_size_minus_one Int)

;; "two_power_size_minus_one_val"
(assert (= two_power_size_minus_one (pow2 (- 8 1))))

;; "lsr_bv_is_lsr"
(assert
  (forall ((x (_ BitVec 8)) (n (_ BitVec 8)))
    (= (bvlshr x n) (lsr x (bv2nat n)))))

;; "min"
(define-fun min ((x Int) (y Int)) Int
  (ite (<= x y) x y))

;; "max"
(define-fun max ((x Int) (y Int)) Int
  (ite (<= x y) y x))

;; "Min_r"
(assert (forall ((x Int) (y Int)) (=> (<= y x) (= (min x y) y))))

;; "Max_l"
(assert (forall ((x Int) (y Int)) (=> (<= y x) (= (max x y) x))))

;; "Min_comm"
(assert (forall ((x Int) (y Int)) (= (min x y) (min y x))))

;; "Max_comm"
(assert (forall ((x Int) (y Int)) (= (max x y) (max y x))))

;; "Min_assoc"
(assert
  (forall ((x Int) (y Int) (z Int)) (= (min (min x y) z) (min x (min y z)))))

;; "Max_assoc"
(assert
  (forall ((x Int) (y Int) (z Int)) (= (max (max x y) z) (max x (max y z)))))

;; "in_range"
(define-fun in_range ((x Int)) Bool
  (and (<= (- 2147483648) x) (<= x 2147483647)))

(declare-sort byte 0)

;; "to_rep"
(declare-fun to_rep (byte) (_ BitVec 8))

;; "of_rep"
(declare-fun of_rep ((_ BitVec 8)) byte)

;; "inversion_axiom"
(assert
  (forall ((x byte)) (! (= (of_rep (to_rep x)) x) :pattern ((to_rep x)) )))

;; "range_axiom"
(assert true)

;; "coerce_axiom"
(assert
  (forall ((x (_ BitVec 8)))
    (! (= (to_rep (of_rep x)) x) :pattern ((to_rep (of_rep x))) )))

(declare-sort map1 0)

;; "has_bounds"
(declare-fun has_bounds (map1
  Int
  Int) Bool)

;; "get"
(declare-fun get (map1
  Int) byte)

(declare-const three_msb_mask (_ BitVec 8))

(declare-const exponent Int)

(declare-const shift_amount Int)

(declare-datatypes ((byte__init_wrapper 0))
  (((byte__init_wrapperqtmk (rec__value byte)(us_attr__init Bool)))))

(declare-sort map2 0)

;; "has_bounds"
(declare-fun has_bounds1 (map2
  Int
  Int) Bool)

;; "get"
(declare-fun get1 (map2
  Int) byte__init_wrapper)

;; "set"
(declare-fun set (map2
  Int
  byte__init_wrapper) map2)

;; "set_eq"
(assert
  (forall ((a map2) (i Int) (v byte__init_wrapper))
    (! (= (get1 (set a i v) i) v) :pattern ((set a i v)) )))

;; "set_neq"
(assert
  (forall ((a map2) (i Int) (v byte__init_wrapper))
    (! (forall ((j Int))
         (! (=> (not (= i j)) (= (get1 (set a i v) j) (get1 a j))) :pattern (
         (get1
           a
           j)) :pattern ((get1 (set a i v) j)) )) :pattern ((set a i v)) )))

;; "set_has_bounds"
(assert
  (forall ((a map2) (i Int) (f Int) (l Int) (v byte__init_wrapper))
    (! (=>
         (and (<= f i) (<= i l))
         (=> (has_bounds1 a f l) (has_bounds1 (set a i v) f l))) :pattern (
    (has_bounds1
      (set a i v)
      f
      l)) )))

(declare-const factor_pivot Int)

(declare-const product_pivot Int)

(declare-sort tinteger_32B 0)

;; "tinteger_32B'int"
(declare-fun tinteger_32Bqtint (tinteger_32B) Int)

;; "tinteger_32B'axiom"
(assert
  (forall ((i tinteger_32B))
    (and
      (<= (- 2147483648) (tinteger_32Bqtint i))
      (<= (tinteger_32Bqtint i) 2147483647))))

;; "in_range"
(define-fun in_range1 ((x Int)) Bool
  (and (<= (- 2147483648) x) (<= x 2147483647)))

;; "in_range"
(define-fun in_range2 ((x Int)) Bool
  (and (<= 0 x) (<= x 63)))

;; "dynamic_invariant"
(define-fun dynamic_invariant ((temp___expr_371 map1) (temp___is_init_367 Bool) (temp___skip_constant_368 Bool) (temp___do_toplevel_369 Bool) (temp___do_typ_inv_370 Bool)) Bool
  (and
    (=>
      (= temp___is_init_367 true)
      (=>
        (= temp___do_toplevel_369 true)
        (= (bvand (to_rep (get temp___expr_371 63)) #xE0) #x00)))
    (has_bounds temp___expr_371 0 63)))

;; "to_rep"
(define-fun to_rep1 ((x tinteger_32B)) Int
  (tinteger_32Bqtint x))

;; "of_rep"
(declare-fun of_rep1 (Int) tinteger_32B)

;; "inversion_axiom"
(assert
  (forall ((x tinteger_32B))
    (! (= (of_rep1 (to_rep1 x)) x) :pattern ((to_rep1 x)) )))

;; "range_axiom"
(assert
  (forall ((x tinteger_32B))
    (! (in_range1 (to_rep1 x)) :pattern ((to_rep1 x)) )))

;; "coerce_axiom"
(assert
  (forall ((x Int))
    (! (=> (in_range1 x) (= (to_rep1 (of_rep1 x)) x)) :pattern ((to_rep1
                                                                  (of_rep1 x))) )))

;; Goal "def'vc"
;; File "sparknacl-hashing-rfsb509.adb", line 47, characters 0-0
(assert
  (not true))

(check-sat)
